c b=3,c=1537
p cnf 17 33
3 -6 0
2 3 -15 0
1 3 -16 0
-3 6 0
2 -3 15 0
2 -3 16 0
2 -5 0
1 2 -14 0
2 -17 0
1 -2 3 15 0
3 -17 0
1 -2 -3 -15 0
-2 -3 17 0
-2 5 0
1 -2 14 0
1 -2 -16 0
1 -4 0
1 -13 0
-1 3 -15 0
2 3 -16 0
-1 -3 15 0
-1 2 14 0
-1 -2 3 16 0
-2 -3 -16 0
-1 -2 -14 0
-1 4 0
-1 13 0
-7 0
-8 0
-9 0
-10 0
-11 0
-12 0
